solution status: optimal solution found
objective value:                              1499000
cpmy_1                                              1 	(obj:0)
cpmy_17                                             1 	(obj:0)
cpmy_40                                             1 	(obj:0)
cpmy_57                                             1 	(obj:0)
cpmy_73                                             1 	(obj:0)
cpmy_92                                             1 	(obj:0)
cpmy_112                                            1 	(obj:0)
cpmy_118                                            1 	(obj:0)
cpmy_140                                            1 	(obj:0)
cpmy_161                                            1 	(obj:0)
cpmy_169                                            1 	(obj:0)
cpmy_185                                            1 	(obj:0)
cpmy_203                                            1 	(obj:0)
cpmy_221                                            1 	(obj:0)
cpmy_225                                            1 	(obj:0)
cpmy_241                                            1 	(obj:0)
cpmy_259                                            1 	(obj:0)
cpmy_278                                            1 	(obj:0)
uf_1                                                1 	(obj:0)
uf_2                                                1 	(obj:0)
uf_3                                                1 	(obj:0)
uf_4                                                1 	(obj:0)
uf_5                                                1 	(obj:0)
uf_6                                                1 	(obj:0)
uf_7                                                1 	(obj:0)
uf_8                                                1 	(obj:0)
uf_9                                                1 	(obj:0)
uf_10                                               1 	(obj:0)
uf_11                                               1 	(obj:0)
uf_12                                               1 	(obj:0)
uf_13                                               1 	(obj:0)
uf_14                                               1 	(obj:0)
uf_15                                               1 	(obj:0)
uf_16                                               1 	(obj:0)
uf_17                                               1 	(obj:0)
uf_18                                               1 	(obj:0)
uf_19                                               1 	(obj:0)
uf_20                                               1 	(obj:0)
uf_21                                               1 	(obj:0)
uf_22                                               1 	(obj:0)
uf_23                                               1 	(obj:0)
uf_24                                               1 	(obj:0)
uf_25                                               1 	(obj:0)
uf_26                                               1 	(obj:0)
uf_27                                               1 	(obj:0)
uf_28                                               1 	(obj:0)
uf_29                                               1 	(obj:0)
uf_30                                               1 	(obj:0)
uf_31                                               1 	(obj:0)
uf_32                                               1 	(obj:0)
uf_33                                               1 	(obj:0)
uf_34                                               1 	(obj:0)
uf_35                                               1 	(obj:0)
uf_36                                               1 	(obj:0)
uf_37                                               1 	(obj:0)
uf_38                                               1 	(obj:0)
uf_39                                               1 	(obj:0)
uf_40                                               1 	(obj:0)
uf_43                                               1 	(obj:0)
uf_46                                               1 	(obj:0)
uf_47                                               1 	(obj:0)
uf_48                                               1 	(obj:0)
uf_49                                               1 	(obj:0)
uf_50                                               1 	(obj:0)
uf_51                                               1 	(obj:0)
uf_52                                               1 	(obj:0)
uf_53                                               1 	(obj:0)
uf_54                                               1 	(obj:0)
uf_55                                               1 	(obj:0)
uf_56                                               1 	(obj:0)
uf_57                                               1 	(obj:0)
uf_58                                               1 	(obj:0)
uf_59                                               1 	(obj:0)
uf_60                                               1 	(obj:0)
uf_68                                               1 	(obj:0)
uf_71                                               1 	(obj:0)
uf_72                                               1 	(obj:0)
uf_73                                               1 	(obj:0)
uf_74                                               1 	(obj:0)
uf_75                                               1 	(obj:0)
uf_77                                               1 	(obj:0)
uf_78                                               1 	(obj:0)
uf_79                                               1 	(obj:0)
uf_80                                               1 	(obj:0)
uf_81                                               1 	(obj:0)
uf_82                                               1 	(obj:0)
uf_84                                               1 	(obj:0)
uf_85                                               1 	(obj:0)
uf_88                                               1 	(obj:0)
uf_91                                               1 	(obj:0)
uf_93                                               1 	(obj:0)
uf_97                                               1 	(obj:0)
uf_99                                               1 	(obj:0)
uf_100                                              1 	(obj:0)
uf_101                                              1 	(obj:0)
uf_102                                              1 	(obj:0)
uf_104                                              1 	(obj:0)
uf_105                                              1 	(obj:0)
uf_106                                              1 	(obj:0)
uf_107                                              1 	(obj:0)
uf_108                                              1 	(obj:0)
uf_109                                              1 	(obj:0)
uf_110                                              1 	(obj:0)
uf_113                                              1 	(obj:0)
uf_117                                              1 	(obj:0)
uf_121                                              1 	(obj:0)
uf_122                                              1 	(obj:0)
uf_124                                              1 	(obj:0)
uf_125                                              1 	(obj:0)
uf_126                                              1 	(obj:0)
uf_127                                              1 	(obj:0)
uf_129                                              1 	(obj:0)
uf_130                                              1 	(obj:0)
uf_133                                              1 	(obj:0)
uf_134                                              1 	(obj:0)
uf_135                                              1 	(obj:0)
uf_141                                              1 	(obj:0)
uf_142                                              1 	(obj:0)
uf_143                                              1 	(obj:0)
uf_144                                              1 	(obj:0)
uf_145                                              1 	(obj:0)
uf_146                                              1 	(obj:0)
uf_147                                              1 	(obj:0)
uf_149                                              1 	(obj:0)
uf_150                                              1 	(obj:0)
uf_152                                              1 	(obj:0)
uf_153                                              1 	(obj:0)
uf_154                                              1 	(obj:0)
uf_155                                              1 	(obj:0)
uf_161                                              1 	(obj:0)
uf_162                                              1 	(obj:0)
uf_163                                              1 	(obj:0)
uf_164                                              1 	(obj:0)
uf_165                                              1 	(obj:0)
uf_166                                              1 	(obj:0)
uf_167                                              1 	(obj:0)
uf_169                                              1 	(obj:0)
uf_170                                              1 	(obj:0)
uf_172                                              1 	(obj:0)
uf_173                                              1 	(obj:0)
uf_174                                              1 	(obj:0)
uf_175                                              1 	(obj:0)
uf_181                                              1 	(obj:0)
uf_182                                              1 	(obj:0)
uf_183                                              1 	(obj:0)
uf_184                                              1 	(obj:0)
uf_185                                              1 	(obj:0)
uf_186                                              1 	(obj:0)
uf_187                                              1 	(obj:0)
uf_189                                              1 	(obj:0)
uf_190                                              1 	(obj:0)
uf_191                                              1 	(obj:0)
uf_192                                              1 	(obj:0)
uf_193                                              1 	(obj:0)
uf_194                                              1 	(obj:0)
uf_195                                              1 	(obj:0)
uf_201                                              1 	(obj:0)
uf_202                                              1 	(obj:0)
uf_203                                              1 	(obj:0)
uf_204                                              1 	(obj:0)
uf_205                                              1 	(obj:0)
uf_206                                              1 	(obj:0)
uf_207                                              1 	(obj:0)
uf_208                                              1 	(obj:0)
uf_209                                              1 	(obj:0)
uf_210                                              1 	(obj:0)
uf_211                                              1 	(obj:0)
uf_212                                              1 	(obj:0)
uf_213                                              1 	(obj:0)
uf_214                                              1 	(obj:0)
uf_215                                              1 	(obj:0)
uf_221                                              1 	(obj:0)
uf_222                                              1 	(obj:0)
uf_223                                              1 	(obj:0)
uf_224                                              1 	(obj:0)
uf_225                                              1 	(obj:0)
uf_226                                              1 	(obj:0)
uf_227                                              1 	(obj:0)
uf_228                                              1 	(obj:0)
uf_229                                              1 	(obj:0)
uf_230                                              1 	(obj:0)
uf_231                                              1 	(obj:0)
uf_232                                              1 	(obj:0)
uf_233                                              1 	(obj:0)
uf_234                                              1 	(obj:0)
uf_235                                              1 	(obj:0)
dr_1                                                1 	(obj:0)
dr_17                                               1 	(obj:0)
dr_40                                               1 	(obj:0)
dr_57                                               1 	(obj:0)
dr_73                                               1 	(obj:0)
dr_92                                               1 	(obj:0)
dr_112                                              1 	(obj:0)
dr_118                                              1 	(obj:0)
dr_140                                              1 	(obj:0)
dr_161                                              1 	(obj:0)
dr_169                                              1 	(obj:0)
dr_185                                              1 	(obj:0)
dr_203                                              1 	(obj:0)
dr_221                                              1 	(obj:0)
dr_225                                              1 	(obj:0)
dr_241                                              1 	(obj:0)
dr_259                                              1 	(obj:0)
dr_278                                              1 	(obj:0)
ud_1                                               50 	(obj:1000)
ud_2                                              250 	(obj:1000)
ud_3                                               13 	(obj:1000)
ud_4                                               20 	(obj:1000)
ud_5                                               50 	(obj:1000)
ud_6                                              250 	(obj:1000)
ud_7                                               13 	(obj:1000)
ud_8                                               20 	(obj:1000)
ud_9                                              150 	(obj:1000)
ud_10                                             200 	(obj:1000)
ud_11                                              13 	(obj:1000)
ud_12                                              20 	(obj:1000)
ud_13                                             200 	(obj:1000)
ud_14                                             250 	(obj:1000)
